%mem=4gb
# b3lyp/6-31g(d,p) freq geom=Connectivity opt

C1C2SSSSSC2[C@@H]2C3SSSSSC3[C@@H]3C[C@H]1C[C@H]23 Opt

0  1
C          -2.48370        -0.43130        -0.23060
C          -1.81860         0.95180        -0.02690
S          -3.29790         2.08900        -0.07060
S          -2.74530         3.48540        -1.46640
S          -1.76070         4.89530        -0.36340
S          -0.04550         3.95220         0.22970
S          -0.59700         2.83120         1.86380
C          -0.93970         1.08960         1.25490
C           0.40790         0.27110         1.29680
C           1.46970         0.59080         0.18610
S           2.74080         1.77690         0.79880
S           3.94790         2.09820        -0.83060
S           5.55030         0.86430        -0.49640
S           4.90560        -0.99090        -1.06560
S           3.50190        -1.50150         0.34660
C           1.96790        -0.77060        -0.37180
C           0.82550        -1.73310        -0.05910
C          -0.37090        -1.64940        -1.01430
C          -1.61500        -1.68060        -0.11640
C          -1.10880        -1.88250         1.30760
C           0.27460        -1.27330         1.28810
H          -3.31020        -0.55720         0.48450
H          -2.94280        -0.45070        -1.23020
H          -1.21100         1.16790        -0.90970
H          -1.54770         0.70580         2.08380
H           0.85350         0.48460         2.28100
H           0.96030         1.10620        -0.63440
H           2.10220        -0.70880        -1.45780
H           1.14460        -2.78330        -0.01780
H          -0.33850        -0.77020        -1.66480
H          -0.36440        -2.51910        -1.68260
H          -2.24270        -2.53770        -0.39280
H          -1.02290        -2.95960         1.50440
H          -1.76440        -1.47610         2.08230
H           0.87460        -1.68430         2.11000

1 2 1.0 22 1.0 23 1.0 19 1.0 
2 3 1.0 24 1.0 8 1.0 
3 4 1.0 
4 5 1.0 
5 6 1.0 
6 7 1.0 
7 8 1.0 
8 9 1.0 25 1.0 
9 10 1.0 26 1.0 21 1.0 
10 11 1.0 27 1.0 16 1.0 
11 12 1.0 
12 13 1.0 
13 14 1.0 
14 15 1.0 
15 16 1.0 
16 17 1.0 28 1.0 
17 18 1.0 29 1.0 21 1.0 
18 19 1.0 30 1.0 31 1.0 
19 20 1.0 32 1.0 
20 21 1.0 33 1.0 34 1.0 
21 35 1.0 
22 
23 
24 
25 
26 
27 
28 
29 
30 
31 
32 
33 
34 
35 


